c Output_time 26.03.2020 18:15:14_+0100 1585242914598382127
c ** Program information **
c program_name                          "QBRG_debug"
c version                               "0.3.20"
c date                                  "25.3.2020"
c gid_id                                "673970833836058123f633335630c185360d632e"
c author                                "Oliver Kullmann"
c url                                   "https://github.com/OKullmann/oklibrary/blob/master/Satisfiability/Transformers/Generators/Random/QBRG.cpp"
c ** Machine information **
c machine_name                          "chyna-Lenovo-G50-70"
c bogomips                              3791.08
c ** Compilation information **
c compiler_version                      "g++ 7.5.0"
c compilation_date                      "Mar_26_2020 11:16:30"
c compilation_options                   "--std=c++17 -pedantic -fmax-errors=5 -Wall -Wextra -g -D_GLIBCXX_DEBUG"
c NDEBUG                                0
c OPTIMIZE                              0
c ** Parameters **
c command-line                          "./QBRG_debug" "a40 e40 a40 40" "303*1,1|2-2,1|3-3,1|4-4,1" "" "1,t" ""
c output                                "QuBlRaGe_160_303_1585242914598193826.qdimacs"
c options                               "filtered,renamed"
c num_quantifier_blocks                 4
c  quantifier_blocks                    1:a1-40 2:e41-80 3:a81-120 4:e121-160
c num_clause-blocks                     1
c  clause-blocks                        303 * {1-40,1,1/2} | {41-80,1,1/2} | {81-120,1,1/2} | {121-160,1,1/2}
c num_e-seeds                           37+2=39
c  e-seeds                              1 0 1 0 5 160 2 40 0 40 1 40 0 40 1 303 4 1 1 1 1 2 2 2 1 1 2 3 3 1 1 2 4 4 1 1 2 1 1585242914598193151
p cnf 160 303
a 1 2 3 4 5 6 7 8 9 10 11 12 13 14 15 16 17 18 19 20 21 22 23 24 25 26 27 28 29 30 31 32 33 34 35 36 37 38 39 40 0
e 41 42 43 44 45 46 47 48 49 50 51 52 53 54 55 56 57 58 59 60 61 62 63 64 65 66 67 68 69 70 71 72 73 74 75 76 77 78 79 80 0
a 81 82 83 84 85 86 87 88 89 90 91 92 93 94 95 96 97 98 99 100 101 102 103 104 105 106 107 108 109 110 111 112 113 114 115 116 117 118 119 120 0
e 121 122 123 124 125 126 127 128 129 130 131 132 133 134 135 136 137 138 139 140 141 142 143 144 145 146 147 148 149 150 151 152 153 154 155 156 157 158 159 160 0
28 73 87 -121 0
11 -63 -99 -121 0
-27 48 99 -121 0
30 -43 -101 -121 0
16 75 105 -121 0
-12 -79 -88 121 0
-15 69 89 121 0
39 -78 -99 121 0
10 -67 -102 121 0
8 65 111 121 0
-11 -57 118 121 0
33 -66 82 -122 0
-31 -71 -85 -122 0
18 44 90 -122 0
16 -64 -93 -122 0
34 -42 98 -122 0
-34 59 108 -122 0
-27 49 -91 122 0
14 65 -92 122 0
26 75 -83 -123 0
18 -65 -93 -123 0
38 43 -104 -123 0
7 -45 -112 -123 0
20 70 114 -123 0
8 -80 82 -124 0
-3 66 89 124 0
1 -64 90 124 0
21 69 -101 124 0
-4 73 -102 124 0
9 42 112 124 0
-1 47 -114 124 0
23 80 -114 124 0
-10 59 117 124 0
-21 62 -84 -125 0
-29 -49 84 -125 0
29 -80 100 -125 0
6 64 -101 -125 0
13 -51 115 -125 0
12 73 -84 125 0
-15 49 90 125 0
21 -52 91 125 0
17 70 -109 125 0
-4 52 -96 -126 0
1 -75 -96 -126 0
9 44 101 -126 0
29 61 101 -126 0
-38 -48 -102 -126 0
12 -61 106 -126 0
13 42 -111 -126 0
-31 -41 -119 -126 0
-22 -42 83 126 0
35 -41 88 126 0
-33 53 93 126 0
16 -57 93 126 0
-19 -67 111 126 0
15 80 91 -127 0
30 67 82 127 0
-4 -72 -100 127 0
-29 -49 -101 127 0
31 -43 -120 127 0
13 68 100 -128 0
-8 42 -104 -128 0
-15 73 89 128 0
32 -67 -93 128 0
27 -43 117 128 0
-40 48 119 128 0
23 48 82 129 0
4 -44 92 129 0
-27 52 -100 129 0
-33 51 100 129 0
6 72 -101 129 0
-30 -57 107 129 0
-39 43 -109 129 0
-5 -54 -116 129 0
-7 47 -117 129 0
-7 -59 90 -130 0
-20 62 -95 -130 0
26 47 99 -130 0
-17 68 -85 130 0
-24 60 99 130 0
-12 65 -117 130 0
-30 -47 87 -131 0
-3 -58 -95 -131 0
30 79 -102 131 0
-25 -77 113 131 0
-28 -58 -120 131 0
38 -76 -82 -132 0
16 -77 -99 -132 0
-28 71 102 -132 0
10 44 -104 -132 0
29 41 -116 -132 0
-5 58 118 -132 0
5 -47 81 132 0
-3 -52 87 132 0
11 53 -88 132 0
-14 79 -94 132 0
-9 73 115 132 0
-29 -46 -99 -133 0
37 50 -102 -133 0
-28 -41 -86 133 0
21 -53 107 133 0
-28 -48 -110 133 0
-10 -51 118 133 0
-34 50 -84 -134 0
-28 -53 105 -134 0
27 59 83 134 0
-7 -59 85 134 0
39 -51 -97 134 0
13 -67 -90 -135 0
28 52 -109 -135 0
37 51 -118 -135 0
6 66 -85 135 0
15 76 96 135 0
33 64 -102 135 0
-40 73 -115 135 0
29 45 -102 -136 0
-7 54 -112 -136 0
36 -49 -90 136 0
-16 -45 93 136 0
22 48 -110 136 0
23 -55 111 136 0
-30 49 -97 -137 0
-5 -49 -104 -137 0
-33 71 81 137 0
-4 -59 -84 137 0
2 -60 93 -138 0
39 -70 93 -138 0
-8 61 -96 -138 0
13 -59 -115 -138 0
-21 -65 -84 138 0
31 70 109 138 0
-4 64 -116 138 0
19 -76 -117 138 0
-12 66 -104 -139 0
-10 54 119 -139 0
-9 -58 100 139 0
35 62 107 139 0
-9 -51 -117 139 0
8 49 95 -140 0
40 76 102 -140 0
-31 54 109 -140 0
-32 80 -114 -140 0
14 -71 -82 140 0
-29 -68 88 140 0
18 42 -94 140 0
4 -78 -106 140 0
25 64 120 140 0
-30 73 -88 -141 0
5 74 -90 -141 0
-7 -56 90 -141 0
-30 -59 -92 -141 0
-12 -64 -107 -141 0
23 -60 111 -141 0
-20 47 -81 141 0
-11 42 86 141 0
3 63 -105 141 0
-22 79 109 141 0
10 61 113 141 0
6 43 115 141 0
-22 -50 -81 -142 0
-7 -63 89 -142 0
32 69 -90 -142 0
33 -47 -93 -142 0
14 -66 96 -142 0
-26 -52 -112 -142 0
-20 -64 -116 -142 0
10 -43 -83 142 0
-7 -66 -92 142 0
-17 49 -82 -143 0
-26 -69 -84 -143 0
-21 76 93 -143 0
-25 42 97 -143 0
-23 73 113 -143 0
35 66 84 143 0
35 -49 -89 143 0
16 54 -89 143 0
-14 -78 99 143 0
-10 -71 103 143 0
33 54 104 143 0
-29 63 107 143 0
12 46 117 143 0
25 -69 87 -144 0
-29 -41 -89 -144 0
3 -58 -97 -144 0
-39 -79 88 144 0
21 -51 86 -145 0
-16 72 94 -145 0
3 -52 -116 -145 0
14 -68 120 145 0
-4 -70 -91 -146 0
-33 59 -105 -146 0
36 77 -112 -146 0
26 -76 -90 146 0
3 -48 95 146 0
-11 50 -99 146 0
16 56 116 146 0
31 78 117 146 0
-19 45 85 -147 0
-10 58 104 -147 0
-29 49 -85 147 0
9 44 99 147 0
16 -72 -101 147 0
13 -58 -82 -148 0
23 52 -83 -148 0
-14 -79 -90 -148 0
-3 48 -91 -148 0
-30 70 -99 -148 0
-35 -44 102 -148 0
5 66 -105 -148 0
-23 50 81 148 0
4 -49 92 148 0
-21 -78 96 148 0
39 -62 109 148 0
39 -77 -112 148 0
33 -46 82 -149 0
-14 72 -92 -149 0
-28 -69 92 -149 0
-33 51 94 -149 0
-3 75 81 -150 0
-22 45 82 -150 0
34 63 106 -150 0
-35 -48 -87 150 0
38 53 87 150 0
3 75 -92 150 0
30 45 -93 150 0
1 -67 -99 150 0
26 -43 -82 151 0
33 -75 -83 151 0
-27 -48 -94 151 0
-22 -78 95 151 0
9 -56 -100 151 0
16 -78 111 151 0
-11 -67 -120 151 0
37 72 -81 -152 0
-40 -42 90 152 0
22 43 100 152 0
35 52 -92 -153 0
17 -57 -92 -153 0
17 -44 110 -153 0
-32 -78 -111 -153 0
-28 -64 111 -153 0
-16 -66 -85 153 0
8 -47 -104 153 0
21 -79 118 153 0
-22 -50 100 -154 0
6 50 100 -154 0
28 41 91 154 0
15 -48 -97 154 0
-4 47 105 154 0
-32 53 81 -155 0
13 -68 -85 -155 0
28 -63 87 155 0
16 53 93 155 0
-6 -72 -94 155 0
-20 60 -118 155 0
-11 67 -102 -156 0
17 54 -103 -156 0
8 52 -116 -156 0
6 59 -88 156 0
20 -63 -90 156 0
-28 53 -91 156 0
-2 66 100 156 0
-13 74 -114 156 0
-15 -56 -99 -157 0
20 -70 -99 -157 0
2 -45 -105 -157 0
-32 -75 105 -157 0
9 -65 -115 -157 0
23 76 86 157 0
-23 -66 89 157 0
25 71 -90 157 0
39 -47 98 157 0
-34 70 -100 157 0
-10 56 109 157 0
38 65 109 157 0
-6 -61 -118 157 0
-10 -73 84 -158 0
-9 -50 -85 -158 0
18 -70 -88 -158 0
-36 -72 88 -158 0
1 63 95 -158 0
9 41 97 -158 0
-30 44 -102 -158 0
-26 -53 -102 -158 0
-13 -79 -114 -158 0
5 41 -95 158 0
-5 -73 105 158 0
-28 41 -111 158 0
-7 -45 82 -159 0
25 76 -96 -159 0
-27 42 103 -159 0
23 -68 88 159 0
19 67 -111 159 0
9 -69 112 159 0
16 59 114 159 0
-39 -74 117 159 0
-22 60 -84 -160 0
-7 -55 84 -160 0
16 -73 82 160 0
-24 -71 117 160 0
16 -51 118 160 0
-32 -73 119 160 0
-13 67 -120 160 0
